(declare-const x0 Real)
(declare-const x1 Real)
(declare-const x2 Real)
(declare-const x3 Real)
(declare-const x4 Real)
(declare-const x5 Real)
(declare-const x6 Real)
(declare-const x7 Real)
(declare-const x8 Real)
(declare-const x9 Real)
(declare-const x10 Real)
(declare-const x11 Real)
(declare-const x12 Real)
(declare-const x13 Real)
(declare-const x14 Real)
(declare-const x15 Real)
(declare-const x16 Real)
(declare-const x17 Real)
(declare-const x18 Real)
(declare-const x19 Real)
(declare-const x20 Real)
(declare-const x21 Real)
(declare-const x22 Real)
(declare-const x23 Real)
(declare-const x24 Real)
(declare-const x25 Real)
(declare-const x26 Real)
(declare-const x27 Real)
(declare-const x28 Real)
(declare-const x29 Real)
(declare-const x30 Real)
(declare-const x31 Real)
(declare-const x32 Real)
(declare-const x33 Real)
(declare-const x34 Real)
(declare-const x35 Real)
(declare-const x36 Real)
(declare-const x37 Real)
(declare-const x38 Real)
(declare-const x39 Real)
(declare-const x40 Real)
(declare-const x41 Real)
(declare-const x42 Real)
(declare-const x43 Real)
(declare-const x44 Real)
(declare-const x45 Real)
(declare-const x46 Real)
(declare-const x47 Real)
(declare-const x48 Real)
(declare-const x49 Real)

(assert (= (+ (^ x0 2.0) (^ x1 2.0) (^ x2 2.0) (^ x3 2.0) (^ x4 2.0) (^ x5 2.0) (^ x6 2.0) (^ x7 2.0) (^ x8 2.0) (^ x9 2.0) (^ x10 2.0) (^ x11 2.0) (^ x12 2.0) (^ x13 2.0) (^ x14 2.0) (^ x15 2.0) (^ x16 2.0) (^ x17 2.0) (^ x18 2.0) (^ x19 2.0) (^ x20 2.0) (^ x21 2.0) (^ x22 2.0) (^ x23 2.0) (^ x24 2.0) (^ x25 2.0) (^ x26 2.0) (^ x27 2.0) (^ x28 2.0) (^ x29 2.0) (^ x30 2.0) (^ x31 2.0) (^ x32 2.0) (^ x33 2.0) (^ x34 2.0) (^ x35 2.0) (^ x36 2.0) (^ x37 2.0) (^ x38 2.0) (^ x39 2.0) (^ x40 2.0) (^ x41 2.0) (^ x42 2.0) (^ x43 2.0) (^ x44 2.0) (^ x45 2.0) (^ x46 2.0) (^ x47 2.0) (^ x48 2.0) (^ x49 2.0)) 1.0))

(minimize
	(+ (^ x0 2.0) (^ x0 4.0) (* 2.0 (^ x1 2.0)) (* 2.0 (^ x1 4.0)) (* 3.0 (^ x2 2.0)) (* 3.0 (^ x2 4.0)) (* 4.0 (^ x3 2.0)) (* 4.0 (^ x3 4.0)) (* 5.0 (^ x4 2.0)) (* 5.0 (^ x4 4.0)) (* 6.0 (^ x5 2.0)) (* 6.0 (^ x5 4.0)) (* 7.0 (^ x6 2.0)) (* 7.0 (^ x6 4.0)) (* 8.0 (^ x7 2.0)) (* 8.0 (^ x7 4.0)) (* 9.0 (^ x8 2.0)) (* 9.0 (^ x8 4.0)) (* 10.0 (^ x9 2.0)) (* 10.0 (^ x9 4.0)) (* 11.0 (^ x10 2.0)) (* 11.0 (^ x10 4.0)) (* 12.0 (^ x11 2.0)) (* 12.0 (^ x11 4.0)) (* 13.0 (^ x12 2.0)) (* 13.0 (^ x12 4.0)) (* 14.0 (^ x13 2.0)) (* 14.0 (^ x13 4.0)) (* 15.0 (^ x14 2.0)) (* 15.0 (^ x14 4.0)) (* 16.0 (^ x15 2.0)) (* 16.0 (^ x15 4.0)) (* 17.0 (^ x16 2.0)) (* 17.0 (^ x16 4.0)) (* 18.0 (^ x17 2.0)) (* 18.0 (^ x17 4.0)) (* 19.0 (^ x18 2.0)) (* 19.0 (^ x18 4.0)) (* 20.0 (^ x19 2.0)) (* 20.0 (^ x19 4.0)) (* 21.0 (^ x20 2.0)) (* 21.0 (^ x20 4.0)) (* 22.0 (^ x21 2.0)) (* 22.0 (^ x21 4.0)) (* 23.0 (^ x22 2.0)) (* 23.0 (^ x22 4.0)) (* 24.0 (^ x23 2.0)) (* 24.0 (^ x23 4.0)) (* 25.0 (^ x24 2.0)) (* 25.0 (^ x24 4.0)) (* 26.0 (^ x25 2.0)) (* 26.0 (^ x25 4.0)) (* 27.0 (^ x26 2.0)) (* 27.0 (^ x26 4.0)) (* 28.0 (^ x27 2.0)) (* 28.0 (^ x27 4.0)) (* 29.0 (^ x28 2.0)) (* 29.0 (^ x28 4.0)) (* 30.0 (^ x29 2.0)) (* 30.0 (^ x29 4.0)) (* 31.0 (^ x30 2.0)) (* 31.0 (^ x30 4.0)) (* 32.0 (^ x31 2.0)) (* 32.0 (^ x31 4.0)) (* 33.0 (^ x32 2.0)) (* 33.0 (^ x32 4.0)) (* 34.0 (^ x33 2.0)) (* 34.0 (^ x33 4.0)) (* 35.0 (^ x34 2.0)) (* 35.0 (^ x34 4.0)) (* 36.0 (^ x35 2.0)) (* 36.0 (^ x35 4.0)) (* 37.0 (^ x36 2.0)) (* 37.0 (^ x36 4.0)) (* 38.0 (^ x37 2.0)) (* 38.0 (^ x37 4.0)) (* 39.0 (^ x38 2.0)) (* 39.0 (^ x38 4.0)) (* 40.0 (^ x39 2.0)) (* 40.0 (^ x39 4.0)) (* 41.0 (^ x40 2.0)) (* 41.0 (^ x40 4.0)) (* 42.0 (^ x41 2.0)) (* 42.0 (^ x41 4.0)) (* 43.0 (^ x42 2.0)) (* 43.0 (^ x42 4.0)) (* 44.0 (^ x43 2.0)) (* 44.0 (^ x43 4.0)) (* 45.0 (^ x44 2.0)) (* 45.0 (^ x44 4.0)) (* 46.0 (^ x45 2.0)) (* 46.0 (^ x45 4.0)) (* 47.0 (^ x46 2.0)) (* 47.0 (^ x46 4.0)) (* 48.0 (^ x47 2.0)) (* 48.0 (^ x47 4.0)) (* 49.0 (^ x48 2.0)) (* 49.0 (^ x48 4.0)) (* 50.0 (^ x49 2.0)) (* 50.0 (^ x49 4.0)))
)
(check-sat)
(get-objectives)
(exit)

